40 45 -49 -70 -5 0
-61 45 -82 -49 -76 -10 -5 31 0
-63 -94 35 -85 45 -82 -49 -44 -76 -10 -5 31 0
-63 35 -85 45 -49 -44 -76 -10 -40 -70 -5 0
-31 -56 45 -44 -70 -35 0
-63 -85 45 -49 -44 -10 -70 -5 0
-63 75 -85 45 -82 -76 87 24 -70 -35 -66 0
-63 -92 75 -85 45 -76 -44 -10 -40 24 -70 -35 -66 0
-63 -85 45 -49 -44 -10 -70 0
72 -70 -60 45 0
5 41 -54 -10 -70 0
-85 44 78 -49 83 -76 -10 -70 -5 -35 0
0
